45
1 0 21
2 0 12
2 1 26
3 0 20
3 1 10
3 2 3
4 0 27
4 1 2
4 2 24
4 3 13
5 0 18
5 1 19
5 2 10
5 3 11
5 4 6
6 0 9
6 1 20
6 2 1
6 3 20
6 4 27
6 5 24
7 0 17
7 1 4
7 2 21
7 3 13
7 4 7
7 5 14
7 6 17
8 0 12
8 1 13
8 2 2
8 3 19
8 4 20
8 5 12
8 6 26
8 7 9
9 0 17
9 1 21
9 2 30
9 3 13
9 4 13
9 5 18
9 6 27
9 7 29
9 8 27
10 0 14
10 1 9
10 2 26
10 3 2
10 4 7
10 5 28
10 6 26
10 7 26
10 8 27
10 9 20
11 0 4
11 1 30
11 2 18
11 3 9
11 4 27
11 5 13
11 6 9
11 7 10
11 8 16
11 9 7
11 10 29
12 0 14
12 1 11
12 2 30
12 3 24
12 4 19
12 5 16
12 6 28
12 7 18
12 8 20
12 9 23
12 10 9
12 11 4
13 0 11
13 1 10
13 2 18
13 3 30
13 4 26
13 5 9
13 6 11
13 7 9
13 8 3
13 9 7
13 10 12
13 11 10
13 12 18
14 0 3
14 1 29
14 2 4
14 3 1
14 4 12
14 5 3
14 6 4
14 7 27
14 8 12
14 9 16
14 10 25
14 11 18
14 12 29
14 13 1
15 0 28
15 1 27
15 2 15
15 3 29
15 4 11
15 5 29
15 6 7
15 7 26
15 8 10
15 9 29
15 10 9
15 11 23
15 12 27
15 13 28
15 14 25
16 0 5
16 1 4
16 2 4
16 3 29
16 4 29
16 5 30
16 6 2
16 7 26
16 8 30
16 9 20
16 10 8
16 11 7
16 12 21
16 13 26
16 14 3
16 15 7
17 0 8
17 1 4
17 2 16
17 3 12
17 4 5
17 5 18
17 6 11
17 7 30
17 8 26
17 9 15
17 10 13
17 11 11
17 12 13
17 13 1
17 14 25
17 15 20
17 16 26
18 0 5
18 1 9
18 2 7
18 3 22
18 4 29
18 5 29
18 6 21
18 7 11
18 8 3
18 9 9
18 10 30
18 11 15
18 12 25
18 13 5
18 14 28
18 15 13
18 16 25
18 17 28
19 0 20
19 1 24
19 2 26
19 3 7
19 4 4
19 5 19
19 6 4
19 7 29
19 8 12
19 9 17
19 10 14
19 11 8
19 12 18
19 13 22
19 14 8
19 15 28
19 16 19
19 17 11
19 18 9
20 0 13
20 1 22
20 2 28
20 3 27
20 4 2
20 5 15
20 6 28
20 7 18
20 8 16
20 9 22
20 10 10
20 11 26
20 12 22
20 13 17
20 14 26
20 15 28
20 16 8
20 17 12
20 18 24
20 19 10
21 0 11
21 1 2
21 2 19
21 3 15
21 4 2
21 5 24
21 6 9
21 7 1
21 8 26
21 9 30
21 10 16
21 11 20
21 12 1
21 13 5
21 14 13
21 15 20
21 16 16
21 17 4
21 18 20
21 19 6
21 20 5
22 0 24
22 1 12
22 2 13
22 3 12
22 4 19
22 5 10
22 6 17
22 7 24
22 8 28
22 9 11
22 10 30
22 11 6
22 12 20
22 13 8
22 14 3
22 15 8
22 16 25
22 17 4
22 18 5
22 19 19
22 20 17
22 21 2
23 0 4
23 1 26
23 2 20
23 3 8
23 4 9
23 5 8
23 6 8
23 7 23
23 8 26
23 9 29
23 10 22
23 11 13
23 12 12
23 13 28
23 14 25
23 15 19
23 16 17
23 17 16
23 18 15
23 19 7
23 20 23
23 21 13
23 22 16
24 0 18
24 1 6
24 2 17
24 3 28
24 4 11
24 5 11
24 6 1
24 7 3
24 8 19
24 9 15
24 10 3
24 11 16
24 12 2
24 13 2
24 14 2
24 15 7
24 16 10
24 17 11
24 18 13
24 19 24
24 20 4
24 21 8
24 22 12
24 23 21
25 0 9
25 1 27
25 2 5
25 3 15
25 4 30
25 5 10
25 6 4
25 7 4
25 8 8
25 9 19
25 10 3
25 11 30
25 12 14
25 13 22
25 14 28
25 15 27
25 16 14
25 17 9
25 18 27
25 19 26
25 20 16
25 21 25
25 22 20
25 23 18
25 24 2
26 0 2
26 1 7
26 2 5
26 3 27
26 4 12
26 5 25
26 6 12
26 7 26
26 8 2
26 9 1
26 10 6
26 11 17
26 12 16
26 13 3
26 14 3
26 15 24
26 16 15
26 17 2
26 18 27
26 19 25
26 20 22
26 21 24
26 22 4
26 23 26
26 24 4
26 25 22
27 0 20
27 1 27
27 2 7
27 3 10
27 4 8
27 5 1
27 6 30
27 7 30
27 8 28
27 9 11
27 10 6
27 11 18
27 12 4
27 13 6
27 14 28
27 15 24
27 16 28
27 17 21
27 18 16
27 19 16
27 20 18
27 21 11
27 22 6
27 23 13
27 24 16
27 25 16
27 26 15
28 0 14
28 1 27
28 2 1
28 3 19
28 4 8
28 5 3
28 6 19
28 7 22
28 8 18
28 9 16
28 10 6
28 11 7
28 12 27
28 13 10
28 14 2
28 15 9
28 16 9
28 17 29
28 18 10
28 19 8
28 20 2
28 21 6
28 22 25
28 23 30
28 24 19
28 25 9
28 26 16
28 27 19
29 0 14
29 1 1
29 2 25
29 3 27
29 4 19
29 5 14
29 6 16
29 7 22
29 8 1
29 9 16
29 10 8
29 11 27
29 12 24
29 13 15
29 14 9
29 15 24
29 16 8
29 17 27
29 18 5
29 19 17
29 20 8
29 21 9
29 22 6
29 23 16
29 24 3
29 25 24
29 26 18
29 27 4
29 28 10
30 0 19
30 1 23
30 2 10
30 3 15
30 4 27
30 5 28
30 6 21
30 7 21
30 8 10
30 9 5
30 10 26
30 11 27
30 12 24
30 13 24
30 14 15
30 15 26
30 16 29
30 17 8
30 18 30
30 19 11
30 20 19
30 21 3
30 22 14
30 23 9
30 24 25
30 25 1
30 26 7
30 27 12
30 28 3
30 29 17
31 0 30
31 1 28
31 2 25
31 3 4
31 4 19
31 5 17
31 6 4
31 7 18
31 8 22
31 9 8
31 10 11
31 11 14
31 12 29
31 13 28
31 14 8
31 15 16
31 16 18
31 17 25
31 18 23
31 19 29
31 20 16
31 21 27
31 22 4
31 23 5
31 24 2
31 25 8
31 26 21
31 27 9
31 28 4
31 29 12
31 30 1
32 0 27
32 1 18
32 2 22
32 3 9
32 4 30
32 5 26
32 6 2
32 7 15
32 8 25
32 9 3
32 10 28
32 11 3
32 12 12
32 13 23
32 14 26
32 15 1
32 16 17
32 17 26
32 18 21
32 19 24
32 20 27
32 21 17
32 22 25
32 23 24
32 24 7
32 25 7
32 26 26
32 27 23
32 28 6
32 29 7
32 30 4
32 31 11
33 0 29
33 1 28
33 2 20
33 3 17
33 4 20
33 5 12
33 6 11
33 7 15
33 8 16
33 9 9
33 10 25
33 11 23
33 12 1
33 13 27
33 14 27
33 15 2
33 16 20
33 17 18
33 18 27
33 19 7
33 20 25
33 21 2
33 22 26
33 23 28
33 24 11
33 25 24
33 26 5
33 27 22
33 28 9
33 29 2
33 30 27
33 31 26
33 32 29
34 0 12
34 1 3
34 2 15
34 3 1
34 4 29
34 5 14
34 6 23
34 7 5
34 8 8
34 9 11
34 10 15
34 11 6
34 12 2
34 13 11
34 14 12
34 15 23
34 16 27
34 17 28
34 18 23
34 19 14
34 20 23
34 21 9
34 22 25
34 23 17
34 24 23
34 25 7
34 26 7
34 27 9
34 28 22
34 29 26
34 30 12
34 31 22
34 32 21
34 33 9
35 0 16
35 1 5
35 2 19
35 3 23
35 4 29
35 5 10
35 6 23
35 7 25
35 8 15
35 9 3
35 10 4
35 11 6
35 12 8
35 13 19
35 14 29
35 15 8
35 16 18
35 17 30
35 18 13
35 19 13
35 20 5
35 21 8
35 22 10
35 23 29
35 24 1
35 25 20
35 26 7
35 27 22
35 28 1
35 29 5
35 30 4
35 31 5
35 32 23
35 33 5
35 34 5
36 0 18
36 1 4
36 2 17
36 3 10
36 4 1
36 5 4
36 6 30
36 7 11
36 8 25
36 9 7
36 10 19
36 11 30
36 12 23
36 13 20
36 14 28
36 15 29
36 16 15
36 17 28
36 18 6
36 19 5
36 20 19
36 21 5
36 22 6
36 23 13
36 24 16
36 25 10
36 26 4
36 27 22
36 28 28
36 29 1
36 30 17
36 31 29
36 32 25
36 33 24
36 34 25
36 35 16
37 0 1
37 1 6
37 2 29
37 3 19
37 4 20
37 5 11
37 6 5
37 7 17
37 8 12
37 9 27
37 10 18
37 11 19
37 12 4
37 13 19
37 14 24
37 15 16
37 16 14
37 17 5
37 18 22
37 19 11
37 20 30
37 21 15
37 22 29
37 23 11
37 24 23
37 25 9
37 26 6
37 27 11
37 28 24
37 29 2
37 30 10
37 31 2
37 32 23
37 33 28
37 34 11
37 35 11
37 36 25
38 0 12
38 1 19
38 2 21
38 3 28
38 4 5
38 5 27
38 6 4
38 7 2
38 8 15
38 9 4
38 10 13
38 11 13
38 12 2
38 13 26
38 14 7
38 15 17
38 16 10
38 17 4
38 18 30
38 19 14
38 20 15
38 21 20
38 22 22
38 23 18
38 24 25
38 25 2
38 26 2
38 27 21
38 28 10
38 29 18
38 30 28
38 31 25
38 32 27
38 33 24
38 34 1
38 35 17
38 36 20
38 37 28
39 0 26
39 1 25
39 2 21
39 3 10
39 4 23
39 5 27
39 6 23
39 7 15
39 8 24
39 9 21
39 10 21
39 11 27
39 12 21
39 13 1
39 14 30
39 15 6
39 16 22
39 17 1
39 18 29
39 19 16
39 20 30
39 21 11
39 22 3
39 23 24
39 24 20
39 25 4
39 26 13
39 27 18
39 28 28
39 29 18
39 30 26
39 31 19
39 32 27
39 33 10
39 34 10
39 35 11
39 36 14
39 37 5
39 38 1
40 0 18
40 1 8
40 2 23
40 3 10
40 4 3
40 5 29
40 6 14
40 7 16
40 8 4
40 9 8
40 10 4
40 11 11
40 12 10
40 13 1
40 14 10
40 15 2
40 16 11
40 17 30
40 18 27
40 19 19
40 20 26
40 21 23
40 22 3
40 23 24
40 24 13
40 25 10
40 26 19
40 27 19
40 28 21
40 29 22
40 30 7
40 31 19
40 32 24
40 33 20
40 34 20
40 35 11
40 36 17
40 37 23
40 38 9
40 39 14
41 0 20
41 1 25
41 2 25
41 3 7
41 4 26
41 5 5
41 6 13
41 7 5
41 8 24
41 9 24
41 10 18
41 11 15
41 12 23
41 13 26
41 14 15
41 15 8
41 16 29
41 17 11
41 18 15
41 19 9
41 20 25
41 21 3
41 22 12
41 23 20
41 24 30
41 25 26
41 26 12
41 27 5
41 28 2
41 29 21
41 30 9
41 31 29
41 32 16
41 33 18
41 34 18
41 35 5
41 36 1
41 37 8
41 38 25
41 39 16
41 40 6
42 0 8
42 1 22
42 2 12
42 3 19
42 4 28
42 5 9
42 6 23
42 7 21
42 8 12
42 9 1
42 10 11
42 11 5
42 12 18
42 13 29
42 14 16
42 15 5
42 16 24
42 17 23
42 18 21
42 19 21
42 20 6
42 21 4
42 22 30
42 23 16
42 24 16
42 25 6
42 26 9
42 27 23
42 28 12
42 29 12
42 30 28
42 31 28
42 32 9
42 33 11
42 34 10
42 35 17
42 36 28
42 37 22
42 38 26
42 39 14
42 40 10
42 41 14
43 0 19
43 1 13
43 2 30
43 3 26
43 4 5
43 5 26
43 6 18
43 7 2
43 8 17
43 9 21
43 10 21
43 11 30
43 12 22
43 13 10
43 14 21
43 15 6
43 16 16
43 17 24
43 18 22
43 19 15
43 20 17
43 21 14
43 22 17
43 23 27
43 24 4
43 25 3
43 26 15
43 27 13
43 28 10
43 29 12
43 30 15
43 31 21
43 32 18
43 33 15
43 34 26
43 35 8
43 36 8
43 37 30
43 38 23
43 39 22
43 40 6
43 41 1
43 42 21
44 0 11
44 1 15
44 2 1
44 3 4
44 4 22
44 5 17
44 6 10
44 7 1
44 8 18
44 9 17
44 10 23
44 11 21
44 12 20
44 13 12
44 14 25
44 15 27
44 16 1
44 17 3
44 18 8
44 19 3
44 20 30
44 21 24
44 22 29
44 23 24
44 24 10
44 25 10
44 26 10
44 27 7
44 28 27
44 29 2
44 30 3
44 31 2
44 32 13
44 33 2
44 34 26
44 35 9
44 36 4
44 37 8
44 38 17
44 39 16
44 40 28
44 41 25
44 42 4
44 43 10
